set VV := 0 1 2 3 4 5 ;
set VS := 0 1 2 3 4 5 6 7 8 9 10 11 12 13 14 15 ;
param cv := 
0 18
1 14
2 16
3 21
4 23
5 11
;
param cs := 
0 40
1 38
2 35
3 40
4 37
5 31
6 23
7 36
8 24
9 21
10 36
11 40
12 27
13 34
14 29
15 29
;
param bv:	 0 1 2 3 4 5 := 
		0 0 25 0 23 20 0 
		1 0 0 0 0 0 0 
		2 0 0 0 0 0 21 
		3 0 0 0 0 25 17 
		4 0 0 0 0 0 0 
		5 0 0 0 0 0 0 
;
param bs:	 0 1 2 3 4 5 6 7 8 9 10 11 12 13 14 15 := 
		0 0 0 0 0 0 40 21 0 0 0 28 0 0 0 0 33 
		1 0 0 0 0 0 0 0 0 0 27 0 0 0 0 0 0 
		2 0 0 0 0 0 0 0 31 24 0 0 0 0 0 26 0 
		3 0 0 0 0 0 0 0 0 0 0 0 33 0 0 0 0 
		4 0 0 0 0 0 0 0 0 0 0 0 0 0 0 33 0 
		5 40 0 0 0 0 0 0 0 0 39 0 32 0 0 0 0 
		6 21 0 0 0 0 0 0 0 0 0 0 0 0 0 0 0 
		7 0 0 31 0 0 0 0 0 0 0 0 0 0 0 0 33 
		8 0 0 24 0 0 0 0 0 0 0 0 0 0 23 0 0 
		9 0 27 0 0 0 39 0 0 0 0 0 0 0 0 0 0 
		10 28 0 0 0 0 0 0 0 0 0 0 0 32 0 0 0 
		11 0 0 0 33 0 32 0 0 0 0 0 0 0 0 0 0 
		12 0 0 0 0 0 0 0 0 0 0 32 0 0 0 0 0 
		13 0 0 0 0 0 0 0 0 23 0 0 0 0 0 0 0 
		14 0 0 26 0 33 0 0 0 0 0 0 0 0 0 0 0 
		15 33 0 0 0 0 0 0 33 0 0 0 0 0 0 0 0 
;
